3 3 2
20 0 75 2 114 0 98 1 111 2 47 0 188 2 110 1 140 2 120 1 178 0 190 1 92 0 8 1 151 2 19 0 172 2 41 0 59 1 187 0 77 
20 2 176 1 109 0 138 1 39 2 158 0 132 1 66 2 34 0 154 2 18 1 143 0 116 1 99 2 6 1 39 0 42 2 88 1 193 2 178 0 162 
20 1 172 2 127 1 60 2 186 0 131 2 191 1 44 2 40 0 34 1 170 0 70 2 23 1 26 2 175 0 69 2 13 0 147 2 106 0 170 2 74 

-------------
